NAME = SAfile180,
TOURSIZE = 180,
LENGTH = 1960,
74,163,145,104,177,169,55,124,123,153,159,78,49,99,119,71,140,5,9,148,59,161,151,117,132,6,22,175,173,174,130,84,85,60,14,168,89,118,44,24,137,62,72,82,17,68,20,122,134,13,80,121,179,166,106,19,26,101,126,127,146,143,100,65,112,81,48,94,30,109,95,92,160,165,115,120,7,178,47,51,56,157,108,144,133,25,88,102,129,154,87,86,98,142,57,113,32,4,50,38,63,11,1,91,34,10,97,156,2,18,136,90,167,75,39,3,76,131,67,69,105,110,111,114,27,141,31,53,15,61,162,79,93,8,21,42,138,46,40,147,150,149,107,35,12,45,172,116,158,135,52,43,139,152,29,16,164,170,96,103,176,180,58,125,33,73,28,54,83,41,155,128,77,70,23,37,36,66,64,171